100 500 10 200 10 100
71 118
25 96
11 143
22 162
68 18
63 110
87 175
10 181
30 117
25 139
80 139
16 197
73 30
40 181
52 156
78 68
11 122
50 14
86 64
30 169
70 122
14 37
15 145
40 22
11 146
44 104
99 199
45 82
51 62
78 18
78 109
69 104
10 73
99 107
88 118
57 42
28 145
66 125
28 121
22 16
68 132
65 163
78 54
91 170
55 140
75 137
39 97
65 113
69 182
79 109
99 85
66 150
49 33
66 153
44 55
51 10
52 113
68 128
85 50
10 86
42 119
62 72
73 96
63 188
97 15
51 189
84 60
37 154
55 34
17 26
34 109
91 77
80 54
58 191
32 113
57 96
88 110
51 59
52 176
17 95
26 177
59 93
82 42
49 131
96 165
25 157
67 17
59 107
81 49
64 168
82 186
47 196
83 64
82 135
73 157
90 42
64 146
51 160
51 184
35 88
